p cnf 265 1931
91 107 165 0
67 127 129 0
134 135 153 197 0
97 138 169 173 201 0
78 81 87 124 204 0
102 119 0
70 73 0
75 90 244 258 0
48 65 0
141 248 0
30 146 208 211 0
111 131 214 0
218 220 222 0
150 156 158 161 0
104 108 122 137 164 0
113 115 145 166 0
99 103 167 170 172 0
85 88 95 0
63 69 71 0
57 59 61 100 0
49 53 56 118 0
41 43 45 46 0
34 36 37 40 0
31 33 149 154 157 0
26 28 110 148 0
24 25 121 163 0
23 66 130 144 152 0
21 22 80 94 98 123 0
17 18 20 0
12 13 14 16 62 0
10 11 58 60 83 0
51 55 64 74 0
8 9 42 117 0
174 175 176 177 0
178 179 180 181 0
151 182 0
162 183 184 185 186 0
92 109 188 189 0
68 128 190 192 193 194 0
139 171 0
82 89 125 0
72 133 195 198 200 0
96 101 168 202 0
77 86 203 205 206 0
50 54 76 120 0
38 44 207 0
47 142 155 0
27 112 0
29 209 212 0
114 132 213 215 0
19 217 239 0
219 221 223 224 0
84 225 226 0
-153 -204 0
-156 -164 0
-126 -156 0
-126 -164 0
-66 -98 0
-66 -117 0
-98 -117 0
-178 -183 0
-178 -227 0
-178 -190 0
-183 -227 0
-183 -190 0
-190 -227 0
-195 -203 0
-76 -195 0
-35 -195 0
-76 -203 0
-35 -203 0
-35 -76 0
-66 -156 0
-156 -178 0
-156 -195 0
-66 -178 0
-66 -195 0
-178 -195 0
-98 -164 0
-164 -183 0
-164 -203 0
-98 -183 0
-98 -203 0
-183 -203 0
-153 -227 0
-76 -153 0
-76 -227 0
-190 -204 0
-35 -204 0
-35 -190 0
-117 -126 0
-169 -197 0
-87 -197 0
-73 -197 0
-197 -244 0
-87 -169 0
-73 -169 0
-169 -244 0
-73 -87 0
-87 -244 0
-73 -244 0
-141 -208 0
-131 -141 0
-141 -210 0
-141 -218 0
-131 -208 0
-208 -210 0
-208 -218 0
-131 -210 0
-131 -218 0
-210 -218 0
-40 -228 0
-40 -154 0
-40 -163 0
-40 -230 0
-154 -228 0
-163 -228 0
-228 -230 0
-154 -163 0
-154 -230 0
-163 -230 0
-16 -20 0
-11 -20 0
-9 -20 0
-20 -174 0
-11 -16 0
-9 -16 0
-16 -174 0
-9 -11 0
-11 -174 0
-9 -174 0
-184 -232 0
-184 -188 0
-184 -192 0
-188 -232 0
-192 -232 0
-188 -192 0
-54 -205 0
-44 -205 0
-205 -233 0
-44 -54 0
-54 -233 0
-44 -233 0
-184 -205 0
-141 -197 0
-40 -197 0
-20 -197 0
-197 -232 0
-54 -197 0
-40 -141 0
-20 -141 0
-141 -232 0
-54 -141 0
-20 -40 0
-40 -232 0
-40 -54 0
-20 -232 0
-20 -54 0
-54 -232 0
-169 -208 0
-169 -228 0
-16 -169 0
-169 -188 0
-44 -169 0
-208 -228 0
-16 -208 0
-188 -208 0
-44 -208 0
-16 -228 0
-188 -228 0
-44 -228 0
-16 -188 0
-16 -44 0
-44 -188 0
-87 -131 0
-87 -154 0
-11 -87 0
-87 -192 0
-87 -233 0
-131 -154 0
-11 -131 0
-131 -192 0
-131 -233 0
-11 -154 0
-154 -192 0
-154 -233 0
-11 -192 0
-11 -233 0
-192 -233 0
-73 -210 0
-73 -163 0
-9 -73 0
-163 -210 0
-9 -210 0
-9 -163 0
-218 -244 0
-230 -244 0
-174 -244 0
-218 -230 0
-174 -218 0
-174 -230 0
-107 -234 0
-127 -234 0
-102 -234 0
-70 -234 0
-90 -234 0
-107 -127 0
-102 -107 0
-70 -107 0
-90 -107 0
-102 -127 0
-70 -127 0
-90 -127 0
-70 -102 0
-90 -102 0
-70 -90 0
-65 -236 0
-65 -237 0
-65 -253 0
-65 -240 0
-65 -220 0
-236 -237 0
-236 -253 0
-236 -240 0
-220 -236 0
-237 -253 0
-237 -240 0
-220 -237 0
-240 -253 0
-220 -253 0
-220 -240 0
-150 -187 0
-104 -150 0
-93 -150 0
-150 -167 0
-95 -150 0
-79 -150 0
-63 -150 0
-104 -187 0
-93 -187 0
-167 -187 0
-95 -187 0
-79 -187 0
-63 -187 0
-93 -104 0
-104 -167 0
-95 -104 0
-79 -104 0
-63 -104 0
-93 -167 0
-93 -95 0
-79 -93 0
-63 -93 0
-95 -167 0
-79 -167 0
-63 -167 0
-79 -95 0
-63 -95 0
-63 -79 0
-56 -61 0
-46 -61 0
-37 -61 0
-33 -61 0
-28 -61 0
-25 -61 0
-61 -241 0
-46 -56 0
-37 -56 0
-33 -56 0
-28 -56 0
-25 -56 0
-56 -241 0
-37 -46 0
-33 -46 0
-28 -46 0
-25 -46 0
-46 -241 0
-33 -37 0
-28 -37 0
-25 -37 0
-37 -241 0
-28 -33 0
-25 -33 0
-33 -241 0
-25 -28 0
-28 -241 0
-25 -241 0
-23 -216 0
-22 -23 0
-18 -23 0
-10 -23 0
-23 -74 0
-8 -23 0
-23 -175 0
-22 -216 0
-18 -216 0
-10 -216 0
-74 -216 0
-8 -216 0
-175 -216 0
-18 -22 0
-10 -22 0
-22 -74 0
-8 -22 0
-22 -175 0
-10 -18 0
-18 -74 0
-8 -18 0
-18 -175 0
-10 -74 0
-8 -10 0
-10 -175 0
-8 -74 0
-74 -175 0
-8 -175 0
-179 -182 0
-162 -179 0
-179 -242 0
-179 -193 0
-116 -179 0
-171 -179 0
-89 -179 0
-162 -182 0
-182 -242 0
-182 -193 0
-116 -182 0
-171 -182 0
-89 -182 0
-162 -242 0
-162 -193 0
-116 -162 0
-162 -171 0
-89 -162 0
-193 -242 0
-116 -242 0
-171 -242 0
-89 -242 0
-116 -193 0
-171 -193 0
-89 -193 0
-116 -171 0
-89 -116 0
-89 -171 0
-168 -198 0
-86 -198 0
-50 -198 0
-198 -245 0
-142 -198 0
-32 -198 0
-27 -198 0
-86 -168 0
-50 -168 0
-168 -245 0
-142 -168 0
-32 -168 0
-27 -168 0
-50 -86 0
-86 -245 0
-86 -142 0
-32 -86 0
-27 -86 0
-50 -245 0
-50 -142 0
-32 -50 0
-27 -50 0
-142 -245 0
-32 -245 0
-27 -245 0
-32 -142 0
-27 -142 0
-27 -32 0
-140 -209 0
-132 -140 0
-140 -246 0
-140 -219 0
-15 -140 0
-84 -140 0
-52 -140 0
-132 -209 0
-209 -246 0
-209 -219 0
-15 -209 0
-84 -209 0
-52 -209 0
-132 -246 0
-132 -219 0
-15 -132 0
-84 -132 0
-52 -132 0
-219 -246 0
-15 -246 0
-84 -246 0
-52 -246 0
-15 -219 0
-84 -219 0
-52 -219 0
-15 -84 0
-15 -52 0
-52 -84 0
-65 -234 0
-150 -234 0
-61 -234 0
-23 -234 0
-179 -234 0
-198 -234 0
-140 -234 0
-65 -150 0
-61 -65 0
-23 -65 0
-65 -179 0
-65 -198 0
-65 -140 0
-61 -150 0
-23 -150 0
-150 -179 0
-150 -198 0
-140 -150 0
-23 -61 0
-61 -179 0
-61 -198 0
-61 -140 0
-23 -179 0
-23 -198 0
-23 -140 0
-179 -198 0
-140 -179 0
-140 -198 0
-107 -236 0
-107 -187 0
-56 -107 0
-107 -216 0
-107 -182 0
-107 -168 0
-107 -209 0
-187 -236 0
-56 -236 0
-216 -236 0
-182 -236 0
-168 -236 0
-209 -236 0
-56 -187 0
-187 -216 0
-182 -187 0
-168 -187 0
-187 -209 0
-56 -216 0
-56 -182 0
-56 -168 0
-56 -209 0
-182 -216 0
-168 -216 0
-209 -216 0
-168 -182 0
-182 -209 0
-168 -209 0
-127 -237 0
-104 -127 0
-46 -127 0
-22 -127 0
-127 -162 0
-86 -127 0
-127 -132 0
-104 -237 0
-46 -237 0
-22 -237 0
-162 -237 0
-86 -237 0
-132 -237 0
-46 -104 0
-22 -104 0
-104 -162 0
-86 -104 0
-104 -132 0
-22 -46 0
-46 -162 0
-46 -86 0
-46 -132 0
-22 -162 0
-22 -86 0
-22 -132 0
-86 -162 0
-132 -162 0
-86 -132 0
-37 -93 0
-18 -93 0
-93 -242 0
-50 -93 0
-93 -246 0
-18 -37 0
-37 -242 0
-37 -50 0
-37 -246 0
-18 -242 0
-18 -50 0
-18 -246 0
-50 -242 0
-242 -246 0
-50 -246 0
-33 -167 0
-10 -167 0
-167 -193 0
-167 -245 0
-167 -219 0
-10 -33 0
-33 -193 0
-33 -245 0
-33 -219 0
-10 -193 0
-10 -245 0
-10 -219 0
-193 -245 0
-193 -219 0
-219 -245 0
-102 -253 0
-95 -102 0
-28 -102 0
-74 -102 0
-102 -116 0
-102 -142 0
-15 -102 0
-95 -253 0
-28 -253 0
-74 -253 0
-116 -253 0
-142 -253 0
-15 -253 0
-28 -95 0
-74 -95 0
-95 -116 0
-95 -142 0
-15 -95 0
-28 -74 0
-28 -116 0
-28 -142 0
-15 -28 0
-74 -116 0
-74 -142 0
-15 -74 0
-116 -142 0
-15 -116 0
-15 -142 0
-70 -240 0
-70 -79 0
-25 -70 0
-8 -70 0
-70 -171 0
-32 -70 0
-70 -84 0
-79 -240 0
-25 -240 0
-8 -240 0
-171 -240 0
-32 -240 0
-84 -240 0
-25 -79 0
-8 -79 0
-79 -171 0
-32 -79 0
-79 -84 0
-8 -25 0
-25 -171 0
-25 -32 0
-25 -84 0
-8 -171 0
-8 -32 0
-8 -84 0
-32 -171 0
-84 -171 0
-32 -84 0
-90 -220 0
-63 -90 0
-90 -241 0
-90 -175 0
-89 -90 0
-27 -90 0
-52 -90 0
-63 -220 0
-220 -241 0
-175 -220 0
-89 -220 0
-27 -220 0
-52 -220 0
-63 -241 0
-63 -175 0
-63 -89 0
-27 -63 0
-52 -63 0
-175 -241 0
-89 -241 0
-27 -241 0
-52 -241 0
-89 -175 0
-27 -175 0
-52 -175 0
-27 -89 0
-52 -89 0
-27 -52 0
-134 -138 0
-81 -134 0
-119 -134 0
-134 -258 0
-81 -138 0
-119 -138 0
-138 -258 0
-81 -119 0
-81 -258 0
-119 -258 0
-146 -248 0
-111 -248 0
-248 -260 0
-222 -248 0
-111 -146 0
-146 -260 0
-146 -222 0
-111 -260 0
-111 -222 0
-222 -260 0
-122 -158 0
-158 -250 0
-113 -158 0
-158 -172 0
-85 -158 0
-71 -158 0
-122 -250 0
-113 -122 0
-122 -172 0
-85 -122 0
-71 -122 0
-113 -250 0
-172 -250 0
-85 -250 0
-71 -250 0
-113 -172 0
-85 -113 0
-71 -113 0
-85 -172 0
-71 -172 0
-71 -85 0
-45 -100 0
-36 -100 0
-100 -251 0
-100 -149 0
-100 -148 0
-100 -252 0
-36 -45 0
-45 -251 0
-45 -149 0
-45 -148 0
-45 -252 0
-36 -251 0
-36 -149 0
-36 -148 0
-36 -252 0
-149 -251 0
-148 -251 0
-251 -252 0
-148 -149 0
-149 -252 0
-148 -252 0
-94 -152 0
-17 -152 0
-62 -152 0
-60 -152 0
-55 -152 0
-152 -176 0
-17 -94 0
-62 -94 0
-60 -94 0
-55 -94 0
-94 -176 0
-17 -62 0
-17 -60 0
-17 -55 0
-17 -176 0
-60 -62 0
-55 -62 0
-62 -176 0
-55 -60 0
-60 -176 0
-55 -176 0
-180 -185 0
-180 -235 0
-109 -180 0
-128 -180 0
-185 -235 0
-109 -185 0
-128 -185 0
-109 -235 0
-128 -235 0
-109 -128 0
-114 -238 0
-238 -254 0
-238 -239 0
-221 -238 0
-114 -254 0
-114 -239 0
-114 -221 0
-239 -254 0
-221 -254 0
-221 -239 0
-100 -158 0
-152 -158 0
-158 -180 0
-158 -238 0
-100 -152 0
-100 -180 0
-100 -238 0
-152 -180 0
-152 -238 0
-180 -238 0
-45 -122 0
-94 -122 0
-122 -185 0
-114 -122 0
-45 -94 0
-45 -185 0
-45 -114 0
-94 -185 0
-94 -114 0
-114 -185 0
-134 -248 0
-134 -250 0
-36 -134 0
-17 -134 0
-134 -235 0
-134 -254 0
-248 -250 0
-36 -248 0
-17 -248 0
-235 -248 0
-248 -254 0
-36 -250 0
-17 -250 0
-235 -250 0
-250 -254 0
-17 -36 0
-36 -235 0
-36 -254 0
-17 -235 0
-17 -254 0
-235 -254 0
-138 -146 0
-113 -138 0
-138 -251 0
-62 -138 0
-109 -138 0
-138 -239 0
-113 -146 0
-146 -251 0
-62 -146 0
-109 -146 0
-146 -239 0
-113 -251 0
-62 -113 0
-109 -113 0
-113 -239 0
-62 -251 0
-109 -251 0
-239 -251 0
-62 -109 0
-62 -239 0
-109 -239 0
-81 -111 0
-81 -172 0
-81 -149 0
-60 -81 0
-81 -128 0
-81 -221 0
-111 -172 0
-111 -149 0
-60 -111 0
-111 -128 0
-111 -221 0
-149 -172 0
-60 -172 0
-128 -172 0
-172 -221 0
-60 -149 0
-128 -149 0
-149 -221 0
-60 -128 0
-60 -221 0
-128 -221 0
-119 -260 0
-85 -119 0
-119 -148 0
-55 -119 0
-85 -260 0
-148 -260 0
-55 -260 0
-85 -148 0
-55 -85 0
-55 -148 0
-222 -258 0
-71 -258 0
-252 -258 0
-176 -258 0
-71 -222 0
-222 -252 0
-176 -222 0
-71 -252 0
-71 -176 0
-176 -252 0
-135 -173 0
-124 -135 0
-124 -173 0
-166 -191 0
-103 -191 0
-191 -196 0
-69 -191 0
-103 -166 0
-166 -196 0
-69 -166 0
-103 -196 0
-69 -103 0
-69 -196 0
-34 -255 0
-34 -157 0
-34 -121 0
-34 -256 0
-157 -255 0
-121 -255 0
-255 -256 0
-121 -157 0
-157 -256 0
-121 -256 0
-181 -257 0
-181 -189 0
-181 -194 0
-139 -181 0
-82 -181 0
-189 -257 0
-194 -257 0
-139 -257 0
-82 -257 0
-189 -194 0
-139 -189 0
-82 -189 0
-139 -194 0
-82 -194 0
-82 -139 0
-120 -133 0
-133 -207 0
-133 -259 0
-133 -147 0
-112 -133 0
-120 -207 0
-120 -259 0
-120 -147 0
-112 -120 0
-207 -259 0
-147 -207 0
-112 -207 0
-147 -259 0
-112 -259 0
-112 -147 0
-249 -261 0
-217 -249 0
-223 -249 0
-225 -249 0
-249 -262 0
-217 -261 0
-223 -261 0
-225 -261 0
-261 -262 0
-217 -223 0
-217 -225 0
-217 -262 0
-223 -225 0
-223 -262 0
-225 -262 0
-133 -181 0
-181 -249 0
-133 -249 0
-135 -191 0
-34 -135 0
-135 -257 0
-120 -135 0
-135 -261 0
-34 -191 0
-191 -257 0
-120 -191 0
-191 -261 0
-34 -257 0
-34 -120 0
-34 -261 0
-120 -257 0
-257 -261 0
-120 -261 0
-166 -173 0
-173 -255 0
-173 -189 0
-173 -207 0
-173 -217 0
-166 -255 0
-166 -189 0
-166 -207 0
-166 -217 0
-189 -255 0
-207 -255 0
-217 -255 0
-189 -207 0
-189 -217 0
-207 -217 0
-103 -124 0
-124 -157 0
-124 -194 0
-124 -259 0
-124 -223 0
-103 -157 0
-103 -194 0
-103 -259 0
-103 -223 0
-157 -194 0
-157 -259 0
-157 -223 0
-194 -259 0
-194 -223 0
-223 -259 0
-121 -196 0
-139 -196 0
-147 -196 0
-196 -225 0
-121 -139 0
-121 -147 0
-121 -225 0
-139 -147 0
-139 -225 0
-147 -225 0
-69 -256 0
-69 -82 0
-69 -112 0
-69 -262 0
-82 -256 0
-112 -256 0
-256 -262 0
-82 -112 0
-82 -262 0
-112 -262 0
-129 -165 0
-165 -201 0
-129 -201 0
-159 -229 0
-159 -211 0
-211 -229 0
-43 -53 0
-53 -110 0
-53 -263 0
-43 -110 0
-43 -263 0
-110 -263 0
-21 -264 0
-64 -264 0
-177 -264 0
-21 -64 0
-21 -177 0
-64 -177 0
-125 -136 0
-159 -165 0
-53 -165 0
-165 -264 0
-53 -159 0
-159 -264 0
-53 -264 0
-129 -229 0
-43 -129 0
-21 -129 0
-43 -229 0
-21 -229 0
-21 -43 0
-201 -211 0
-64 -110 0
-110 -136 0
-64 -136 0
-177 -263 0
-125 -263 0
-125 -177 0
-91 -106 0
-67 -106 0
-97 -106 0
-78 -106 0
-67 -91 0
-91 -97 0
-78 -91 0
-67 -97 0
-67 -78 0
-78 -97 0
-39 -48 0
-48 -265 0
-30 -48 0
-48 -214 0
-39 -265 0
-30 -39 0
-39 -214 0
-30 -265 0
-214 -265 0
-30 -214 0
-161 -243 0
-137 -161 0
-115 -161 0
-161 -170 0
-88 -161 0
-161 -199 0
-137 -243 0
-115 -243 0
-170 -243 0
-88 -243 0
-199 -243 0
-115 -137 0
-137 -170 0
-88 -137 0
-137 -199 0
-115 -170 0
-88 -115 0
-115 -199 0
-88 -170 0
-170 -199 0
-88 -199 0
-49 -59 0
-41 -59 0
-59 -143 0
-31 -59 0
-26 -59 0
-24 -59 0
-41 -49 0
-49 -143 0
-31 -49 0
-26 -49 0
-24 -49 0
-41 -143 0
-31 -41 0
-26 -41 0
-24 -41 0
-31 -143 0
-26 -143 0
-24 -143 0
-26 -31 0
-24 -31 0
-24 -26 0
-130 -247 0
-80 -130 0
-14 -130 0
-83 -130 0
-51 -130 0
-42 -130 0
-80 -247 0
-14 -247 0
-83 -247 0
-51 -247 0
-42 -247 0
-14 -80 0
-80 -83 0
-51 -80 0
-42 -80 0
-14 -83 0
-14 -51 0
-14 -42 0
-51 -83 0
-42 -83 0
-42 -51 0
-200 -202 0
-200 -206 0
-155 -200 0
-160 -200 0
-202 -206 0
-155 -202 0
-160 -202 0
-155 -206 0
-160 -206 0
-155 -160 0
-212 -231 0
-213 -231 0
-7 -231 0
-226 -231 0
-212 -213 0
-7 -212 0
-212 -226 0
-7 -213 0
-213 -226 0
-7 -226 0
-48 -106 0
-106 -161 0
-59 -106 0
-106 -130 0
-106 -200 0
-106 -231 0
-48 -161 0
-48 -59 0
-48 -130 0
-48 -200 0
-48 -231 0
-59 -161 0
-130 -161 0
-161 -200 0
-161 -231 0
-59 -130 0
-59 -200 0
-59 -231 0
-130 -200 0
-130 -231 0
-200 -231 0
-39 -91 0
-91 -243 0
-49 -91 0
-91 -247 0
-91 -202 0
-91 -212 0
-39 -243 0
-39 -49 0
-39 -247 0
-39 -202 0
-39 -212 0
-49 -243 0
-243 -247 0
-202 -243 0
-212 -243 0
-49 -247 0
-49 -202 0
-49 -212 0
-202 -247 0
-212 -247 0
-202 -212 0
-67 -265 0
-67 -137 0
-41 -67 0
-67 -80 0
-67 -206 0
-67 -213 0
-137 -265 0
-41 -265 0
-80 -265 0
-206 -265 0
-213 -265 0
-41 -137 0
-80 -137 0
-137 -206 0
-137 -213 0
-41 -80 0
-41 -206 0
-41 -213 0
-80 -206 0
-80 -213 0
-206 -213 0
-30 -97 0
-97 -115 0
-97 -143 0
-14 -97 0
-30 -115 0
-30 -143 0
-14 -30 0
-115 -143 0
-14 -115 0
-14 -143 0
-78 -214 0
-78 -170 0
-31 -78 0
-78 -83 0
-170 -214 0
-31 -214 0
-83 -214 0
-31 -170 0
-83 -170 0
-31 -83 0
-26 -88 0
-51 -88 0
-88 -155 0
-7 -88 0
-26 -51 0
-26 -155 0
-7 -26 0
-51 -155 0
-7 -51 0
-7 -155 0
-24 -199 0
-42 -199 0
-160 -199 0
-199 -226 0
-24 -42 0
-24 -160 0
-24 -226 0
-42 -160 0
-42 -226 0
-160 -226 0
-6 -108 0
-6 -145 0
-6 -99 0
-108 -145 0
-99 -108 0
-99 -145 0
-5 -123 0
-5 -13 0
-5 -58 0
-13 -123 0
-58 -123 0
-13 -58 0
-151 -186 0
-92 -151 0
-68 -151 0
-105 -151 0
-92 -186 0
-68 -186 0
-105 -186 0
-68 -92 0
-92 -105 0
-68 -105 0
-77 -96 0
-38 -96 0
-4 -96 0
-47 -96 0
-38 -77 0
-4 -77 0
-47 -77 0
-4 -38 0
-38 -47 0
-4 -47 0
-29 -215 0
-19 -29 0
-29 -224 0
-3 -29 0
-19 -215 0
-215 -224 0
-3 -215 0
-19 -224 0
-3 -19 0
-3 -224 0
-5 -6 0
-6 -151 0
-6 -96 0
-6 -29 0
-5 -151 0
-5 -96 0
-5 -29 0
-96 -151 0
-29 -151 0
-29 -96 0
-108 -123 0
-108 -186 0
-77 -108 0
-108 -215 0
-123 -186 0
-77 -123 0
-123 -215 0
-77 -186 0
-186 -215 0
-77 -215 0
-13 -145 0
-92 -145 0
-38 -145 0
-19 -145 0
-13 -92 0
-13 -38 0
-13 -19 0
-38 -92 0
-19 -92 0
-19 -38 0
-58 -99 0
-68 -99 0
-4 -99 0
-99 -224 0
-58 -68 0
-4 -58 0
-58 -224 0
-4 -68 0
-68 -224 0
-4 -224 0
-47 -105 0
-3 -105 0
-3 -47 0
-57 -118 0
-2 -57 0
-2 -118 0
-1 -144 0
-12 -144 0
-1 -12 0
-72 -101 0
-57 -144 0
-57 -72 0
-72 -144 0
-1 -118 0
-101 -118 0
-1 -101 0
-2 -12 0
-107 -234 0
-127 -234 0
-65 -234 0
-234 -236 0
-234 -237 0
-107 -127 0
-65 -107 0
-107 -236 0
-107 -237 0
-65 -127 0
-127 -236 0
-127 -237 0
-65 -236 0
-65 -237 0
-236 -237 0
-129 -165 0
-159 -165 0
-165 -229 0
-129 -159 0
-129 -229 0
-159 -229 0
-91 -106 0
-67 -106 0
-48 -106 0
-39 -106 0
-106 -265 0
-67 -91 0
-48 -91 0
-39 -91 0
-91 -265 0
-48 -67 0
-39 -67 0
-67 -265 0
-39 -48 0
-48 -265 0
-39 -265 0
-153 -204 0
-169 -197 0
-87 -197 0
-141 -197 0
-197 -208 0
-131 -197 0
-87 -169 0
-141 -169 0
-169 -208 0
-131 -169 0
-87 -141 0
-87 -208 0
-87 -131 0
-141 -208 0
-131 -141 0
-131 -208 0
-134 -138 0
-81 -134 0
-134 -248 0
-134 -146 0
-111 -134 0
-81 -138 0
-138 -248 0
-138 -146 0
-111 -138 0
-81 -248 0
-81 -146 0
-81 -111 0
-146 -248 0
-111 -248 0
-111 -146 0
-135 -173 0
-124 -135 0
-124 -173 0
-201 -211 0
-78 -97 0
-30 -97 0
-97 -214 0
-30 -78 0
-78 -214 0
-30 -214 0
-73 -244 0
-73 -210 0
-73 -218 0
-210 -244 0
-218 -244 0
-210 -218 0
-70 -102 0
-90 -102 0
-102 -253 0
-102 -240 0
-102 -220 0
-70 -90 0
-70 -253 0
-70 -240 0
-70 -220 0
-90 -253 0
-90 -240 0
-90 -220 0
-240 -253 0
-220 -253 0
-220 -240 0
-119 -258 0
-119 -260 0
-119 -222 0
-258 -260 0
-222 -258 0
-222 -260 0
-156 -164 0
-66 -156 0
-98 -156 0
-66 -164 0
-98 -164 0
-66 -98 0
-150 -187 0
-104 -150 0
-61 -150 0
-56 -150 0
-46 -150 0
-23 -150 0
-150 -216 0
-22 -150 0
-104 -187 0
-61 -187 0
-56 -187 0
-46 -187 0
-23 -187 0
-187 -216 0
-22 -187 0
-61 -104 0
-56 -104 0
-46 -104 0
-23 -104 0
-104 -216 0
-22 -104 0
-56 -61 0
-46 -61 0
-23 -61 0
-61 -216 0
-22 -61 0
-46 -56 0
-23 -56 0
-56 -216 0
-22 -56 0
-23 -46 0
-46 -216 0
-22 -46 0
-23 -216 0
-22 -23 0
-22 -216 0
-122 -158 0
-100 -158 0
-45 -158 0
-152 -158 0
-94 -158 0
-100 -122 0
-45 -122 0
-122 -152 0
-94 -122 0
-45 -100 0
-100 -152 0
-94 -100 0
-45 -152 0
-45 -94 0
-94 -152 0
-43 -53 0
-53 -264 0
-21 -53 0
-43 -264 0
-21 -43 0
-21 -264 0
-161 -243 0
-137 -161 0
-59 -161 0
-49 -161 0
-41 -161 0
-130 -161 0
-161 -247 0
-80 -161 0
-137 -243 0
-59 -243 0
-49 -243 0
-41 -243 0
-130 -243 0
-243 -247 0
-80 -243 0
-59 -137 0
-49 -137 0
-41 -137 0
-130 -137 0
-137 -247 0
-80 -137 0
-49 -59 0
-41 -59 0
-59 -130 0
-59 -247 0
-59 -80 0
-41 -49 0
-49 -130 0
-49 -247 0
-49 -80 0
-41 -130 0
-41 -247 0
-41 -80 0
-130 -247 0
-80 -130 0
-80 -247 0
-6 -108 0
-5 -6 0
-6 -123 0
-5 -108 0
-108 -123 0
-5 -123 0
-57 -118 0
-57 -144 0
-1 -57 0
-118 -144 0
-1 -118 0
-1 -144 0
-40 -228 0
-40 -154 0
-20 -40 0
-16 -40 0
-11 -40 0
-154 -228 0
-20 -228 0
-16 -228 0
-11 -228 0
-20 -154 0
-16 -154 0
-11 -154 0
-16 -20 0
-11 -20 0
-11 -16 0
-93 -167 0
-37 -93 0
-33 -93 0
-18 -93 0
-10 -93 0
-37 -167 0
-33 -167 0
-18 -167 0
-10 -167 0
-33 -37 0
-18 -37 0
-10 -37 0
-18 -33 0
-10 -33 0
-10 -18 0
-113 -250 0
-172 -250 0
-36 -250 0
-250 -251 0
-149 -250 0
-17 -250 0
-62 -250 0
-60 -250 0
-113 -172 0
-36 -113 0
-113 -251 0
-113 -149 0
-17 -113 0
-62 -113 0
-60 -113 0
-36 -172 0
-172 -251 0
-149 -172 0
-17 -172 0
-62 -172 0
-60 -172 0
-36 -251 0
-36 -149 0
-17 -36 0
-36 -62 0
-36 -60 0
-149 -251 0
-17 -251 0
-62 -251 0
-60 -251 0
-17 -149 0
-62 -149 0
-60 -149 0
-17 -62 0
-17 -60 0
-60 -62 0
-166 -191 0
-103 -191 0
-34 -191 0
-191 -255 0
-157 -191 0
-103 -166 0
-34 -166 0
-166 -255 0
-157 -166 0
-34 -103 0
-103 -255 0
-103 -157 0
-34 -255 0
-34 -157 0
-157 -255 0
-115 -170 0
-115 -143 0
-31 -115 0
-14 -115 0
-83 -115 0
-143 -170 0
-31 -170 0
-14 -170 0
-83 -170 0
-31 -143 0
-14 -143 0
-83 -143 0
-14 -31 0
-31 -83 0
-14 -83 0
-99 -145 0
-13 -145 0
-58 -145 0
-13 -99 0
-58 -99 0
-13 -58 0
-2 -12 0
-117 -126 0
-163 -230 0
-9 -163 0
-163 -174 0
-9 -230 0
-174 -230 0
-9 -174 0
-79 -95 0
-63 -95 0
-28 -95 0
-25 -95 0
-95 -241 0
-74 -95 0
-8 -95 0
-95 -175 0
-63 -79 0
-28 -79 0
-25 -79 0
-79 -241 0
-74 -79 0
-8 -79 0
-79 -175 0
-28 -63 0
-25 -63 0
-63 -241 0
-63 -74 0
-8 -63 0
-63 -175 0
-25 -28 0
-28 -241 0
-28 -74 0
-8 -28 0
-28 -175 0
-25 -241 0
-25 -74 0
-8 -25 0
-25 -175 0
-74 -241 0
-8 -241 0
-175 -241 0
-8 -74 0
-74 -175 0
-8 -175 0
-71 -85 0
-85 -148 0
-85 -252 0
-55 -85 0
-85 -176 0
-71 -148 0
-71 -252 0
-55 -71 0
-71 -176 0
-148 -252 0
-55 -148 0
-148 -176 0
-55 -252 0
-176 -252 0
-55 -176 0
-69 -196 0
-121 -196 0
-196 -256 0
-69 -121 0
-69 -256 0
-121 -256 0
-110 -263 0
-64 -110 0
-110 -177 0
-64 -263 0
-177 -263 0
-64 -177 0
-88 -199 0
-26 -88 0
-24 -88 0
-51 -88 0
-42 -88 0
-26 -199 0
-24 -199 0
-51 -199 0
-42 -199 0
-24 -26 0
-26 -51 0
-26 -42 0
-24 -51 0
-24 -42 0
-42 -51 0
-178 -183 0
-178 -195 0
-178 -203 0
-183 -195 0
-183 -203 0
-195 -203 0
-184 -205 0
-179 -182 0
-162 -179 0
-179 -198 0
-168 -179 0
-86 -179 0
-140 -179 0
-179 -209 0
-132 -179 0
-162 -182 0
-182 -198 0
-168 -182 0
-86 -182 0
-140 -182 0
-182 -209 0
-132 -182 0
-162 -198 0
-162 -168 0
-86 -162 0
-140 -162 0
-162 -209 0
-132 -162 0
-168 -198 0
-86 -198 0
-140 -198 0
-198 -209 0
-132 -198 0
-86 -168 0
-140 -168 0
-168 -209 0
-132 -168 0
-86 -140 0
-86 -209 0
-86 -132 0
-140 -209 0
-132 -140 0
-132 -209 0
-180 -185 0
-180 -238 0
-114 -180 0
-185 -238 0
-114 -185 0
-114 -238 0
-133 -181 0
-181 -249 0
-133 -249 0
-200 -202 0
-200 -206 0
-200 -231 0
-200 -212 0
-200 -213 0
-202 -206 0
-202 -231 0
-202 -212 0
-202 -213 0
-206 -231 0
-206 -212 0
-206 -213 0
-212 -231 0
-213 -231 0
-212 -213 0
-151 -186 0
-96 -151 0
-77 -151 0
-29 -151 0
-151 -215 0
-96 -186 0
-77 -186 0
-29 -186 0
-186 -215 0
-77 -96 0
-29 -96 0
-96 -215 0
-29 -77 0
-77 -215 0
-29 -215 0
-72 -101 0
-190 -227 0
-76 -227 0
-35 -227 0
-76 -190 0
-35 -190 0
-35 -76 0
-188 -232 0
-192 -232 0
-54 -232 0
-44 -232 0
-232 -233 0
-188 -192 0
-54 -188 0
-44 -188 0
-188 -233 0
-54 -192 0
-44 -192 0
-192 -233 0
-44 -54 0
-54 -233 0
-44 -233 0
-193 -242 0
-50 -242 0
-242 -245 0
-242 -246 0
-219 -242 0
-50 -193 0
-193 -245 0
-193 -246 0
-193 -219 0
-50 -245 0
-50 -246 0
-50 -219 0
-245 -246 0
-219 -245 0
-219 -246 0
-109 -235 0
-128 -235 0
-235 -254 0
-235 -239 0
-221 -235 0
-109 -128 0
-109 -254 0
-109 -239 0
-109 -221 0
-128 -254 0
-128 -239 0
-128 -221 0
-239 -254 0
-221 -254 0
-221 -239 0
-189 -257 0
-194 -257 0
-120 -257 0
-207 -257 0
-257 -259 0
-257 -261 0
-217 -257 0
-223 -257 0
-189 -194 0
-120 -189 0
-189 -207 0
-189 -259 0
-189 -261 0
-189 -217 0
-189 -223 0
-120 -194 0
-194 -207 0
-194 -259 0
-194 -261 0
-194 -217 0
-194 -223 0
-120 -207 0
-120 -259 0
-120 -261 0
-120 -217 0
-120 -223 0
-207 -259 0
-207 -261 0
-207 -217 0
-207 -223 0
-259 -261 0
-217 -259 0
-223 -259 0
-217 -261 0
-223 -261 0
-217 -223 0
-68 -92 0
-38 -92 0
-4 -92 0
-19 -92 0
-92 -224 0
-38 -68 0
-4 -68 0
-19 -68 0
-68 -224 0
-4 -38 0
-19 -38 0
-38 -224 0
-4 -19 0
-4 -224 0
-19 -224 0
-116 -171 0
-89 -116 0
-116 -142 0
-32 -116 0
-27 -116 0
-15 -116 0
-84 -116 0
-52 -116 0
-89 -171 0
-142 -171 0
-32 -171 0
-27 -171 0
-15 -171 0
-84 -171 0
-52 -171 0
-89 -142 0
-32 -89 0
-27 -89 0
-15 -89 0
-84 -89 0
-52 -89 0
-32 -142 0
-27 -142 0
-15 -142 0
-84 -142 0
-52 -142 0
-27 -32 0
-15 -32 0
-32 -84 0
-32 -52 0
-15 -27 0
-27 -84 0
-27 -52 0
-15 -84 0
-15 -52 0
-52 -84 0
-82 -139 0
-139 -147 0
-112 -139 0
-139 -225 0
-139 -262 0
-82 -147 0
-82 -112 0
-82 -225 0
-82 -262 0
-112 -147 0
-147 -225 0
-147 -262 0
-112 -225 0
-112 -262 0
-225 -262 0
-125 -136 0
-155 -160 0
-7 -155 0
-155 -226 0
-7 -160 0
-160 -226 0
-7 -226 0
-47 -105 0
-3 -105 0
-3 -47 0
